db/inputs/1339212329600537530059305662183524322.smt2
(set-logic QF_FP)
(declare-const x0 (_ FloatingPoint 11 53))
(declare-const x1 (_ FloatingPoint 11 53))
(declare-const x2 (_ FloatingPoint 11 53))
(declare-const x3 (_ FloatingPoint 11 53))
(declare-const x4 (_ FloatingPoint 11 53))
(declare-const x5 (_ FloatingPoint 11 53))
(declare-const x6 (_ FloatingPoint 11 53))
(declare-const x7 (_ FloatingPoint 11 53))
(assert (fp.lt (fp.mul RNE (fp.mul RNE x5 x3) (fp.mul RNE x5 x3)) (fp.sub RNE (fp.sub RNE x2 x6) (fp.mul RNE x3 x5))))
(assert (fp.geq (fp.sub RNE (fp.neg x6) (fp.neg x1)) (fp.div RNE (fp.neg x7) (fp.div RNE x5 x7))))
(assert (fp.leq (fp.mul RNE (fp.div RNE x0 x3) (fp.add RNE x0 x3)) (fp.div RNE (fp.add RNE x3 x0) (fp.div RNE x2 x5))))
(assert (fp.gt (fp.div RNE (fp.neg x5) (fp.add RNE x6 x3)) (fp.neg (fp.add RNE x0 x1))))
(assert (fp.eq (fp.mul RNE (fp.sub RNE x3 x6) (fp.sub RNE x4 x7)) (fp.mul RNE (fp.mul RNE x6 x3) (fp.div RNE x0 x5))))
(assert (fp.eq (fp.mul RNE (fp.neg x3) (fp.mul RNE x3 x7)) (fp.neg (fp.mul RNE x1 x0))))
(assert (fp.lt (fp.sub RNE (fp.neg x7) (fp.div RNE x6 x4)) (fp.add RNE (fp.neg x4) (fp.add RNE x0 x0))))
(assert (fp.eq (fp.sub RNE (fp.add RNE x0 x7) (fp.neg x1)) (fp.sub RNE (fp.neg x3) (fp.neg x5))))
(assert (fp.geq (fp.mul RNE (fp.add RNE x6 x3) (fp.div RNE x1 x3)) (fp.add RNE (fp.mul RNE x5 x1) (fp.mul RNE x4 x1))))
(assert (fp.leq (fp.neg (fp.neg x7)) (fp.sub RNE (fp.div RNE x3 x3) (fp.mul RNE x6 x0))))
(assert (fp.eq (fp.sub RNE (fp.add RNE x0 x6) (fp.mul RNE x1 x2)) (fp.sub RNE (fp.neg x0) (fp.add RNE x1 x1))))
(assert (fp.lt (fp.sub RNE (fp.neg x1) (fp.add RNE x4 x7)) (fp.neg (fp.div RNE x4 x7))))
(assert (fp.gt (fp.div RNE (fp.neg x6) (fp.neg x1)) (fp.sub RNE (fp.mul RNE x0 x5) (fp.add RNE x6 x2))))
(check-sat)
