db/data/1339212329600537530059305662183524322.z3.out
-------------------
2500.413590885
